/*********************************************
 * OPL 12.6.0.0 Data
 * Author: ilyes
 * Creation Date: 5 avr. 2022 at 19:31:46
 *********************************************/
N=6;
P=[5,12,16,38,5,2,25,8,9,24,6,8,12,8,11,27,3,2,38,15,14,30,2,9,0,9,8,25,10,5,0,0,0,14,6,7];
